benchmarks/crosswords/ozn/crossword3_30.ozn
output ([(((("\n"++problem_name)++"\n")++"L:")++show(L))++"\n"]++[if problem[i,j]==0 then "*" else show(letters[fix(L[problem[i,j]])]) endif++if j==cols then "\n" else "" endif | i in 1..rows, j in 1..cols, ])++["\n"];
int: rows = 21;
int: cols = 21;
array [1..rows,1..cols] of int: problem = [|1,2,3,4,0,5,6,7,8,9,0,10,11,12,13,0,14,15,16,17,18|19,20,21,22,0,23,24,25,26,27,0,28,29,30,31,0,32,33,34,35,36|37,38,39,40,41,42,43,44,45,46,0,47,48,49,50,51,52,53,54,55,56|57,58,59,60,61,62,63,64,0,65,66,67,68,69,0,70,71,72,73,74,75|0,0,0,76,77,78,79,0,80,81,82,83,84,0,85,86,87,88,0,0,0|89,90,91,92,93,94,0,95,96,97,98,99,0,100,101,102,103,104,105,106,107|108,109,110,111,112,0,113,114,115,116,117,118,119,120,121,122,123,0,124,125,126|127,128,129,130,0,131,132,133,134,0,0,0,135,136,137,138,0,139,140,141,142|143,144,145,0,146,147,148,149,150,151,152,153,154,0,155,156,157,158,159,160,161|162,163,164,165,166,167,168,169,0,170,171,172,173,0,0,174,175,176,177,178,179|0,0,180,181,182,183,184,0,185,186,187,188,189,0,190,191,192,193,194,0,0|195,196,197,198,199,200,0,0,201,202,203,204,0,205,206,207,208,209,210,211,212|213,214,215,216,217,218,219,0,220,221,222,223,224,225,226,227,228,0,229,230,231|232,233,234,235,0,236,237,238,239,0,0,0,240,241,242,243,0,244,245,246,247|248,249,250,0,251,252,253,254,255,256,257,258,259,260,261,0,262,263,264,265,266|267,268,269,270,271,272,273,274,0,275,276,277,278,279,0,280,281,282,283,284,285|0,0,0,286,287,288,289,0,290,291,292,293,294,0,295,296,297,298,0,0,0|299,300,301,302,303,304,0,305,306,307,308,309,0,310,311,312,313,314,315,316,317|318,319,320,321,322,323,324,325,326,327,0,328,329,330,331,332,333,334,335,336,337|338,339,340,341,342,0,343,344,345,346,0,347,348,349,350,351,0,352,353,354,355|356,357,358,359,360,0,361,362,363,364,0,365,366,367,368,369,0,370,371,372,373|];
int: num_letters = 26;
array [1..num_letters] of string: letters = ["a","b","c","d","e","f","g","h","i","j","k","l","m","n","o","p","q","r","s","t","u","v","w","x","y","z"];
int: N = 373;
array [0..N] of int: L;
string: problem_name = "21.01, 21 x 21";
